34 57
1 126
23 60
4 50
46 127
52 13
3 194
70 66
31 33
38 34
35 19
33 69
11 64
34 1
27 59
41 30
54 34
18 153
18 90
92 43
44 9
76 49
22 160
27 132
24 26
21 77
22 7
23 2
3 103
65 17
16 31
1 175
3 125
34 72
2 106
2 156
73 9
77 73
48 80
71 71
13 16
54 7
55 61
37 30
19 107
68 39
23 148
1 97
31 76
51 42
29 4
11 124
54 45
44 29
35 43
5 47
44 74
92 62
37 96
77 20
42 125
21 7
25 115
44 100
8 2
50 93
60 16
54 1
59 88
76 16
15 48
66 17
73 36
10 132
68 44
34 29
26 87
24 43
34 112
79 28
61 24
64 14
33 67
26 124
35 98
19 176
97 21
56 92
15 87
88 30
1 93
43 32
56 22
40 33
22 133
18 51
10 36
46 10
1 170
32 25
